120
150
52
43
55
47
55
53
48
56
56
46
49
54
47
57
48
60
41
50
53
53
60
59
59
48
51
58
49
43
57
52
45
52
60
59
40
46
59
44
50
49
57
60
44
48
54
51
44
53
54
43
50
53
53
50
47
48
54
47
45
52
41
56
41
48
53
43
56
58
52
51
42
54
48
42
55
51
47
57
41
40
52
45
55
49
60
42
53
47
50
47
60
58
43
43
49
48
60
53
44
53
43
50
51
42
41
49
54
56
46
57
56
40
47
44
60
50
60
45
56
49
